KPOINTS File, automatically generated by KPPRA - aflow with Kpoints=8000  [KPPRA=8000]
0
Gamma
20 20 20
0 0 0
